(set-info :smt-lib-version 2.6)
(set-logic QF_UFLRA)
(set-info :source |
MathSat group

|)
(set-info :category "random")
(set-info :status unsat)
(declare-fun x0 () Real)
(declare-fun x1 () Real)
(declare-fun x2 () Real)
(declare-fun x3 () Real)
(declare-fun x4 () Real)
(declare-fun x5 () Real)
(declare-fun x6 () Real)
(declare-fun x7 () Real)
(declare-fun x8 () Real)
(declare-fun x9 () Real)
(declare-fun x10 () Real)
(declare-fun x11 () Real)
(declare-fun x12 () Real)
(declare-fun x13 () Real)
(declare-fun x14 () Real)
(declare-fun x15 () Real)
(declare-fun x16 () Real)
(declare-fun x17 () Real)
(declare-fun x18 () Real)
(declare-fun x19 () Real)
(declare-fun x20 () Real)
(declare-fun x21 () Real)
(declare-fun x22 () Real)
(declare-fun x23 () Real)
(declare-fun x24 () Real)
(declare-fun x25 () Real)
(declare-fun x26 () Real)
(declare-fun x27 () Real)
(declare-fun x28 () Real)
(declare-fun x29 () Real)
(declare-fun f0_1 (Real) Real)
(declare-fun f0_2 (Real Real) Real)
(declare-fun f0_3 (Real Real Real) Real)
(declare-fun f0_4 (Real Real Real Real) Real)
(declare-fun P0 () Bool)
(declare-fun P1 () Bool)
(declare-fun P2 () Bool)
(declare-fun P3 () Bool)
(declare-fun P4 () Bool)
(declare-fun P5 () Bool)
(declare-fun P6 () Bool)
(declare-fun P7 () Bool)
(declare-fun P8 () Bool)
(declare-fun P9 () Bool)
(declare-fun P10 () Bool)
(declare-fun P11 () Bool)
(declare-fun P12 () Bool)
(declare-fun P13 () Bool)
(declare-fun P14 () Bool)
(declare-fun P15 () Bool)
(declare-fun P16 () Bool)
(declare-fun P17 () Bool)
(declare-fun P18 () Bool)
(declare-fun P19 () Bool)
(declare-fun P20 () Bool)
(declare-fun P21 () Bool)
(declare-fun P22 () Bool)
(declare-fun P23 () Bool)
(declare-fun P24 () Bool)
(declare-fun P25 () Bool)
(declare-fun P26 () Bool)
(declare-fun P27 () Bool)
(declare-fun P28 () Bool)
(declare-fun P29 () Bool)
(assert (let ((?v_10 (* 17 x12)) (?v_35 (<= (- (+ (* 38 x28) (* 31 x18)) (* 17 x29)) 13)) (?v_51 (distinct (+ (- (* 21 x10) (* 35 x8)) (* 24 x7)) 27)) (?v_69 (< (- (- (* 7 x17) (* 21 x25)) (* 25 x3)) 18)) (?v_3 (distinct (- (- (* 13 x21) (* 33 x16)) (* 10 x26)) 7)) (?v_111 (<= (- (- (* 39 x6) (* 17 x23)) (* 30 x16)) 25)) (?v_24 (< (+ (- (* 2 x26) (* 40 x11)) (* 3 x8)) 6)) (?v_110 (<= (- (- (* 9 x12) (* 15 x12)) (* 16 x1)) 36)) (?v_18 (f0_1 x5))) (let ((?v_20 (= (f0_2 x24 x11) ?v_18)) (?v_40 (f0_1 x14))) (let ((?v_105 (distinct ?v_40 (f0_1 x11))) (?v_4 (f0_1 x20))) (let ((?v_22 (= ?v_4 ?v_4)) (?v_39 (distinct x10 x6)) (?v_99 (= x5 (f0_2 x19 x7))) (?v_44 (= x4 (f0_2 x3 x0))) (?v_42 (f0_1 x17))) (let ((?v_19 (distinct (f0_1 x28) ?v_42)) (?v_38 (distinct x18 x12)) (?v_34 (f0_1 x9))) (let ((?v_93 (distinct ?v_34 x20)) (?v_159 (distinct (f0_1 x21) (f0_1 x12))) (?v_50 (distinct x15 (f0_2 x19 x14))) (?v_78 (= (f0_2 x27 x5) (f0_1 x19))) (?v_75 (distinct x5 (f0_2 x26 x28))) (?v_21 (f0_1 x18))) (let ((?v_66 (= ?v_21 ?v_42)) (?v_115 (= ?v_21 (f0_2 x19 x23))) (?v_97 (= (f0_2 x9 x25) (f0_1 x29))) (?v_95 (distinct (f0_2 x23 x24) x20)) (?v_53 (distinct (f0_2 x3 x27) (f0_2 x21 x27))) (?v_121 (distinct (f0_2 x28 x16) x6)) (?v_26 (= (f0_2 x7 x10) (f0_2 x17 x13))) (?v_11 (distinct (f0_2 x12 x29) (f0_1 x22))) (?v_31 (= x27 x10)) (?v_12 (= x3 x23)) (?v_47 (distinct ?v_40 ?v_18)) (?v_2 (= ?v_34 x19)) (?v_17 (= x14 (f0_1 x25))) (?v_6 (= x19 ?v_21)) (?v_71 (= (f0_2 x8 x9) (f0_1 x24))) (?v_70 (= (f0_1 x16) (f0_1 x2))) (?v_68 (= x25 x2)) (?v_73 (not ?v_39))) (let ((?v_0 (not ?v_70)) (?v_131 (not ?v_68)) (?v_90 (not P14)) (?v_84 (not P13)) (?v_41 (not ?v_47)) (?v_33 (not ?v_19)) (?v_100 (not P5)) (?v_1 (not ?v_2)) (?v_7 (not P21)) (?v_62 (not ?v_3)) (?v_23 (not ?v_35)) (?v_30 (not P27)) (?v_8 (not ?v_6)) (?v_13 (not P12)) (?v_127 (not ?v_53)) (?v_15 (not P9)) (?v_72 (not P16)) (?v_94 (not ?v_44)) (?v_48 (not ?v_12)) (?v_101 (not P28)) (?v_61 (not P0)) (?v_148 (not P26)) (?v_29 (not P11)) (?v_108 (not ?v_69)) (?v_139 (not P6)) (?v_43 (not ?v_22)) (?v_85 (not P20)) (?v_32 (not ?v_24)) (?v_60 (not P8)) (?v_83 (not ?v_78)) (?v_36 (not ?v_50)) (?v_109 (not ?v_93)) (?v_118 (not ?v_38)) (?v_52 (not ?v_105)) (?v_147 (not P4))) (let ((?v_156 (or ?v_147 P19)) (?v_77 (not ?v_66)) (?v_91 (not P18)) (?v_80 (not ?v_51)) (?v_63 (not ?v_11)) (?v_87 (not P23)) (?v_82 (not ?v_26)) (?v_138 (not P7)) (?v_113 (not P1)) (?v_98 (not ?v_97)) (?v_144 (not P29)) (?v_96 (not P22)) (?v_142 (not ?v_17)) (?v_117 (not ?v_71)) (?v_103 (not P2)) (?v_112 (not P10)) (?v_116 (not ?v_121)) (?v_114 (not ?v_31)) (?v_130 (not ?v_111)) (?v_132 (not ?v_99)) (?v_120 (not P19)) (?v_123 (not ?v_95))) (let ((?v_153 (or P25 ?v_117)) (?v_150 (not ?v_75)) (?v_134 (not ?v_159)) (?v_140 (not ?v_115)) (?v_154 (not P25)) (?v_145 (not ?v_110)) (?v_146 (not P24)) (?v_158 (not ?v_20)) (?v_155 (not P3)) (?v_157 (not P17)) (?v_58 (= (- (+ x2 (* 42 x5)) (* 5 x4)) 36))) (let ((?v_14 (not ?v_58)) (?v_27 (< (+ x15 (* 42 x13) (* 23 x12)) 31)) (?v_28 (< (+ (- (* 30 x19) x8) (* 18 x13)) 21))) (let ((?v_128 (or ?v_7 ?v_28)) (?v_149 (not ?v_28)) (?v_56 (< (- (- x26 (* 18 x5)) (* 33 x24)) 17))) (let ((?v_67 (not ?v_56)) (?v_104 (distinct (- (* 42 x12) (* 32 x8)) 12))) (let ((?v_126 (not ?v_104)) (?v_125 (not ?v_27)) (?v_76 (<= (+ (- (* (- 28) x8) (* 32 x14)) (* 30 x21)) 37)) (?v_5 (<= (+ (- (* 26 x20) (* 38 x26)) ?v_10) (- 42))) (?v_89 (distinct (- (+ (* 33 x12) (* 18 x15)) (* 18 x21)) (- 21))) (?v_37 (= (- (- (* (- 42) x13) (* 40 x3)) (* 41 x19)) 44))) (let ((?v_106 (not ?v_37)) (?v_9 (= (+ (* (- 19) x5) (* 30 x1) (* 14 x29)) (- 16)))) (let ((?v_57 (not ?v_9)) (?v_16 (< (+ (* (- 13) x12) (* 33 x1) ?v_10) 5)) (?v_49 (< (+ (* (- 23) x16) (* 30 x13) (* 27 x8)) 3)) (?v_46 (< (- (- 0 (* 25 x14)) (* 28 x21)) (- 27))) (?v_54 (distinct (+ (* (- 22) x27) (* 23 x23) (* 24 x23)) (- 19)))) (let ((?v_25 (not ?v_16)) (?v_74 (< (- (+ (* 31 x23) (* 42 x15)) (* 34 x4)) (- 14)))) (let ((?v_137 (not ?v_74)) (?v_86 (< (+ (- (* (- 22) x20) (* 4 x6)) (* 21 x18)) 41)) (?v_81 (< (- (+ (* 20 x15) (* 6 x2)) (* 3 x15)) (- 18))) (?v_65 (<= (- (- (* (- 32) x9) (* 24 x20)) (* 11 x21)) (- 36)))) (let ((?v_64 (not ?v_65)) (?v_143 (not ?v_5)) (?v_79 (< (+ (- (* (- 2) x20) (* 2 x4)) (* 17 x19)) 33))) (let ((?v_122 (not ?v_79)) (?v_45 (= (+ (- (* (- 42) x5) (* 39 x19)) (* 29 x17)) (- 27))) (?v_59 (= (+ (* (- 20) x18) (* 11 x12) (* 19 x13)) 35))) (let ((?v_55 (not ?v_59)) (?v_151 (not ?v_46)) (?v_129 (not ?v_49)) (?v_92 (distinct (- (- (* 5 x3) (* 3 x5)) (* 22 x15)) (- 23))) (?v_135 (not ?v_54)) (?v_88 (< (- (+ (* (- 24) x25) (* 39 x20)) 0) (- 8)))) (let ((?v_124 (not ?v_88)) (?v_102 (not ?v_76)) (?v_136 (not ?v_86)) (?v_107 (not ?v_89)) (?v_141 (not ?v_81)) (?v_119 (not ?v_92)) (?v_133 (not ?v_45)) (?v_152 (or P17 ?v_122))) (and (and (and (and (and (and (and (and (and (and (and (and (and (and (and (and (and (and (and (and (and (and (and (and (and (and (and (and (and (and (and (and (and (and (and (and (and (and (and (and (and (and (and (and (and (and (and (and (and (and (and (and (and (and (and (and (and (and (and (and (and (and (and (and (and (and (and (and (and (and (and (and (and (and (and (and (and (and (and (and (and (and (and (and (and (and (and (and (and (and (and (and (and (and (and (and (and (and (and (and (and (and (and (and (and (and (and (and (and (and (and (and (and (and (and (and (and (and (and (and (and (and (and (and (and (and (and (and (and (and (and (and (and (and (and (and (and (and (and (and (and (and (and (and (and (and (and (and (and (and (and (and (and (and (and (and (and (and (and (and (and (and (and (and (and (and (and (and (and (and (and (and (and (and (and (and (and (and (and (and (and (and (and (and (and (and (and (and (and (and (and (and (and (and (and (and (and (and (and (and (and (and (and (and (and (and (and (and (and (and (and (and (and (and (and (and (and (and (and (and (and (and (and (and (and (and (and (and (and (and (and (and (and (and (and (and (and (and (and (and (and (and (and (and (and (and (and (and (and (and (and (and (and (and (and (and (and (and (and (and (and (and (and (and (and (and (and (and (and (and (and (and (and (and (and (and (and (and (and (and (and (and (and (and (and (and (and (and (and (and (and (and (and (and (and (and (and (and (and (and (and (and (and (and (and (and (and (and (and (and (and (and (and (and (and (and (and (and (and (and (and (and (and (and (and (and (and (and (and (and (and (and (and (and (and (and (and (and (and (and (and (and (and (and (and (and (and (and (and (and (and (and (and (and (and (and (and (and (and (or (or ?v_73 ?v_12) ?v_0) (or (or P9 P22) P10)) (or (or ?v_131 P8) ?v_90)) (or (or ?v_84 ?v_0) ?v_41)) (or (or ?v_33 ?v_17) ?v_100)) (or (or ?v_14 ?v_1) ?v_76)) (or (or ?v_1 ?v_3) ?v_5)) (or (or ?v_26 ?v_0) ?v_27)) (or (or ?v_24 ?v_89) P15)) (or (or ?v_2 ?v_106) P5)) (or (or P20 ?v_9) P2)) (or (or ?v_6 ?v_7) ?v_38)) (or (or ?v_62 P18) ?v_22)) (or (or ?v_23 ?v_30) ?v_5)) (or (or ?v_8 P27) P17)) (or ?v_128 ?v_11)) (or (or ?v_8 ?v_57) ?v_13)) (or (or ?v_127 ?v_16) ?v_15)) (or (or ?v_72 ?v_11) ?v_49)) (or (or P25 ?v_94) ?v_46)) (or (or ?v_48 ?v_13) ?v_14)) (or (or ?v_101 ?v_54) ?v_15)) (or (or ?v_61 ?v_25) ?v_17)) (or (or ?v_20 P16) ?v_19)) (or (or ?v_148 ?v_29) ?v_108)) (or (or P23 ?v_20) ?v_115)) (or (or ?v_2 ?v_139) ?v_5)) (or (or ?v_137 ?v_43) P25)) (or (or ?v_85 P26) P10)) (or (or ?v_86 ?v_11) P18)) (or (or ?v_23 P1) ?v_32)) (or (or ?v_25 ?v_31) ?v_26)) (or (or ?v_60 ?v_16) ?v_27)) (or (or ?v_149 ?v_29) ?v_81)) (or (or ?v_19 P23) ?v_64)) (or (or ?v_30 ?v_83) ?v_31)) (or (or ?v_36 ?v_32) ?v_8)) (or (or ?v_0 ?v_33) ?v_109)) (or (or ?v_35 ?v_36) ?v_37)) (or (or ?v_143 ?v_118) ?v_30)) (or (or ?v_39 ?v_122) P13)) (or (or ?v_26 ?v_52) ?v_41)) (or ?v_156 ?v_77)) (or (or P10 ?v_43) P3)) (or (or ?v_23 ?v_44) ?v_45)) (or (or ?v_91 ?v_71) ?v_55)) (or (or ?v_80 ?v_45) ?v_151)) (or (or ?v_23 ?v_9) ?v_6)) (or (or ?v_47 ?v_48) ?v_129)) (or (or ?v_63 ?v_50) ?v_1)) (or (or ?v_27 P8) ?v_51)) (or (or ?v_27 P17) ?v_52)) (or (or ?v_92 ?v_51) ?v_50)) (or (or ?v_87 P8) ?v_53)) (or (or P15 P24) ?v_135)) (or (or ?v_55 ?v_67) ?v_39)) (or (or ?v_56 ?v_3) ?v_47)) (or (or ?v_57 ?v_58) ?v_82)) (or (or ?v_138 ?v_13) ?v_59)) (or (or ?v_36 ?v_60) P22)) (or (or ?v_61 ?v_45) ?v_19)) (or (or ?v_54 ?v_62) P3)) (or (or ?v_53 ?v_63) ?v_64)) (or (or ?v_113 ?v_75) ?v_64)) (or (or P11 ?v_56) ?v_8)) (or (or ?v_98 ?v_65) ?v_144)) (or (or ?v_110 ?v_11) P28)) (or (or ?v_8 P2) ?v_96)) (or (or P22 ?v_66) P24)) (or (or P16 ?v_67) ?v_68)) (or (or ?v_69 ?v_19) ?v_70)) (or (or ?v_63 ?v_0) ?v_71)) (or (or ?v_72 ?v_73) ?v_36)) (or (or ?v_124 ?v_74) ?v_52)) (or (or ?v_75 ?v_102) ?v_25)) (or (or ?v_77 ?v_13) P11)) (or (or ?v_62 ?v_78) ?v_79)) (or (or P5 ?v_99) ?v_75)) (or (or ?v_65 ?v_23) P22)) (or (or ?v_80 ?v_81) ?v_57)) (or (or ?v_82 ?v_83) ?v_84)) (or (or ?v_51 ?v_85) P24)) (or (or ?v_126 ?v_136) ?v_5)) (or (or ?v_70 ?v_87) ?v_50)) (or (or ?v_95 ?v_74) ?v_88)) (or (or ?v_13 ?v_36) ?v_41)) (or (or ?v_38 ?v_107) P17)) (or (or P20 ?v_90) ?v_91)) (or (or ?v_92 ?v_49) ?v_13)) (or (or ?v_93 ?v_75) ?v_43)) (or (or P15 P26) ?v_142)) (or (or ?v_117 ?v_77) ?v_93)) (or (or ?v_16 P15) ?v_94)) (or (or ?v_111 ?v_95) P9)) (or (or ?v_103 ?v_52) ?v_112)) (or (or ?v_96 ?v_116) ?v_97)) (or (or ?v_30 ?v_98) ?v_99)) (or (or ?v_100 ?v_73) ?v_74)) (or (or ?v_101 ?v_102) ?v_88)) (or (or ?v_51 ?v_103) P19)) (or (or ?v_15 ?v_50) ?v_19)) (or (or ?v_141 ?v_104) ?v_105)) (or (or ?v_64 ?v_69) ?v_84)) (or (or ?v_82 ?v_106) ?v_95)) (or (or ?v_85 P23) ?v_102)) (or (or ?v_59 ?v_6) ?v_67)) (or (or ?v_12 P16) ?v_107)) (or (or ?v_9 ?v_57) ?v_5)) (or (or ?v_105 ?v_5) ?v_94)) (or (or ?v_84 ?v_108) ?v_97)) (or (or ?v_38 ?v_109) ?v_62)) (or (or P16 P1) ?v_47)) (or (or ?v_114 ?v_110) ?v_44)) (or (or ?v_69 ?v_130) ?v_83)) (or (or P15 ?v_38) ?v_58)) (or (or P7 ?v_46) ?v_84)) (or (or P21 ?v_5) P25)) (or (or ?v_112 ?v_113) ?v_16)) (or (or ?v_132 ?v_119) ?v_67)) (or (or ?v_68 ?v_114) ?v_63)) (or (or ?v_36 ?v_26) ?v_120)) (or (or P23 P17) P9)) (or (or P5 ?v_123) ?v_64)) (or (or ?v_115 ?v_47) ?v_0)) (or (or ?v_66 P19) ?v_125)) (or (or ?v_79 P29) ?v_103)) (or (or ?v_54 P23) ?v_44)) (or (or ?v_116 ?v_76) ?v_63)) (or (or P16 ?v_89) P23)) (or ?v_153 ?v_62)) (or (or ?v_77 ?v_116) ?v_37)) (or (or ?v_100 ?v_133) ?v_75)) (or (or ?v_118 P24) ?v_75)) (or (or P19 P23) ?v_119)) (or (or ?v_32 P28) ?v_120)) (or (or ?v_8 P26) ?v_121)) (or (or ?v_1 ?v_82) ?v_122)) (or (or ?v_123 ?v_29) ?v_150)) (or (or P27 ?v_134) ?v_124)) (or (or ?v_125 P11) ?v_109)) (or (or P10 ?v_38) P24)) (or (or ?v_97 ?v_75) ?v_117)) (or (or ?v_15 ?v_3) ?v_85)) (or (or ?v_126 ?v_127) ?v_55)) (or ?v_152 ?v_48)) (or ?v_128 ?v_72)) (or (or ?v_85 ?v_108) ?v_91)) (or (or ?v_129 ?v_84) P4)) (or (or ?v_0 ?v_54) ?v_130)) (or (or ?v_98 ?v_49) ?v_131)) (or (or ?v_132 ?v_95) ?v_22)) (or (or P18 ?v_49) P5)) (or (or P0 ?v_133) ?v_95)) (or (or ?v_43 ?v_20) ?v_134)) (or (or P8 ?v_19) P21)) (or (or ?v_55 ?v_55) ?v_85)) (or (or ?v_24 ?v_84) ?v_108)) (or (or P26 ?v_125) ?v_50)) (or (or ?v_9 ?v_25) P18)) (or (or ?v_135 ?v_105) ?v_95)) (or (or ?v_20 ?v_123) ?v_90)) (or (or ?v_81 P3) P29)) (or (or ?v_105 ?v_14) ?v_13)) (or (or P23 ?v_106) ?v_44)) (or (or ?v_6 ?v_136) ?v_9)) (or (or ?v_16 ?v_137) ?v_92)) (or (or ?v_82 ?v_118) ?v_138)) (or (or ?v_119 ?v_139) ?v_140)) (or (or ?v_46 ?v_129) ?v_124)) (or (or ?v_2 ?v_99) P2)) (or (or ?v_31 ?v_26) ?v_88)) (or (or ?v_58 ?v_108) ?v_35)) (or (or ?v_60 ?v_140) ?v_119)) (or (or ?v_134 P10) P8)) (or (or ?v_62 ?v_6) ?v_25)) (or (or ?v_141 P19) ?v_154)) (or (or ?v_84 ?v_124) ?v_121)) (or (or ?v_121 ?v_70) ?v_123)) (or (or ?v_30 ?v_33) P8)) (or (or ?v_56 ?v_29) P23)) (or (or ?v_14 ?v_145) ?v_142)) (or (or ?v_85 ?v_101) ?v_31)) (or (or P9 ?v_54) ?v_79)) (or (or P8 P7) ?v_46)) (or (or ?v_35 P15) ?v_130)) (or (or ?v_24 ?v_103) ?v_2)) (or (or ?v_32 ?v_74) P1)) (or (or ?v_87 ?v_37) ?v_92)) (or (or ?v_101 ?v_91) ?v_64)) (or (or ?v_64 P21) ?v_60)) (or (or ?v_102 ?v_68) ?v_106)) (or (or ?v_146 ?v_100) ?v_53)) (or (or ?v_44 ?v_120) ?v_141)) (or (or ?v_120 ?v_129) ?v_143)) (or (or ?v_104 P28) ?v_144)) (or (or ?v_129 ?v_53) ?v_29)) (or (or ?v_44 ?v_145) ?v_99)) (or (or ?v_67 ?v_38) ?v_24)) (or (or ?v_101 ?v_103) ?v_144)) (or (or ?v_130 ?v_132) P11)) (or (or P5 ?v_38) ?v_75)) (or (or ?v_96 ?v_146) ?v_147)) (or (or ?v_59 ?v_20) ?v_129)) (or (or ?v_111 ?v_32) ?v_88)) (or (or ?v_133 ?v_83) ?v_28)) (or (or ?v_81 ?v_51) ?v_1)) (or (or ?v_135 P3) ?v_47)) (or (or P5 P5) ?v_98)) (or (or ?v_26 ?v_80) ?v_12)) (or (or P10 ?v_82) ?v_84)) (or (or ?v_58 ?v_114) ?v_148)) (or (or ?v_25 ?v_91) ?v_54)) (or (or ?v_83 ?v_31) ?v_136)) (or (or ?v_118 P6) ?v_130)) (or (or P9 ?v_64) ?v_75)) (or (or ?v_77 P3) P9)) (or (or ?v_110 ?v_12) ?v_149)) (or (or ?v_130 ?v_46) ?v_9)) (or (or P26 ?v_137) ?v_106)) (or (or ?v_133 ?v_89) ?v_1)) (or (or ?v_20 ?v_102) ?v_39)) (or (or ?v_158 ?v_113) ?v_150)) (or (or ?v_151 ?v_74) ?v_35)) (or (or ?v_23 P26) ?v_55)) (or (or ?v_115 P7) ?v_65)) (or (or P8 ?v_14) P25)) (or (or ?v_29 ?v_104) ?v_22)) (or ?v_152 ?v_54)) (or (or ?v_127 P2) ?v_19)) (or (or ?v_44 P28) ?v_38)) (or (or ?v_14 P3) P1)) (or (or P14 P19) ?v_45)) (or (or ?v_3 ?v_11) ?v_136)) (or (or ?v_50 ?v_25) P5)) (or (or ?v_17 P2) ?v_15)) (or (or ?v_57 ?v_155) ?v_49)) (or (or P2 ?v_73) ?v_114)) (or (or ?v_89 P28) ?v_143)) (or (or ?v_79 ?v_140) ?v_8)) (or (or ?v_99 ?v_31) ?v_0)) (or (or ?v_5 P8) ?v_83)) (or (or P2 ?v_32) ?v_95)) (or (or P3 ?v_75) ?v_8)) (or (or P12 ?v_151) P10)) (or (or ?v_116 ?v_121) ?v_93)) (or (or ?v_119 ?v_17) ?v_53)) (or (or ?v_23 P5) ?v_90)) (or (or ?v_120 P27) P2)) (or (or P4 ?v_71) ?v_68)) (or (or ?v_44 ?v_58) ?v_13)) (or (or P16 ?v_20) ?v_101)) (or (or ?v_59 ?v_72) ?v_35)) (or (or P0 P15) ?v_63)) (or (or ?v_60 ?v_115) ?v_96)) (or (or ?v_49 ?v_107) ?v_3)) (or (or ?v_112 ?v_93) ?v_39)) (or ?v_153 ?v_121)) (or (or P7 ?v_154) ?v_137)) (or (or ?v_26 ?v_11) ?v_66)) (or (or P19 P8) ?v_14)) (or (or P6 ?v_134) ?v_33)) (or (or ?v_83 ?v_155) ?v_7)) (or (or ?v_48 P16) ?v_101)) (or (or ?v_98 P14) ?v_52)) (or (or ?v_129 ?v_155) P16)) (or (or ?v_95 ?v_150) ?v_77)) (or (or ?v_131 ?v_37) ?v_96)) (or (or ?v_157 ?v_32) ?v_16)) (or (or ?v_9 P27) ?v_28)) (or (or ?v_67 ?v_123) ?v_142)) (or (or ?v_2 ?v_149) ?v_143)) (or (or ?v_141 ?v_137) ?v_6)) (or (or ?v_12 ?v_96) ?v_65)) (or (or ?v_151 P12) ?v_66)) (or (or ?v_70 ?v_148) ?v_140)) (or (or ?v_134 ?v_107) ?v_151)) (or ?v_156 ?v_123)) (or (or ?v_106 ?v_16) ?v_54)) (or (or ?v_96 ?v_63) P15)) (or (or ?v_97 ?v_80) ?v_62)) (or (or ?v_43 ?v_133) P7)) (or (or P25 ?v_11) ?v_16)) (or (or ?v_67 ?v_151) ?v_102)) (or (or ?v_91 ?v_92) ?v_113)) (or (or P5 ?v_80) ?v_97)) (or (or ?v_131 ?v_62) ?v_126)) (or (or ?v_11 ?v_69) ?v_46)) (or (or P1 ?v_39) ?v_80)) (or (or ?v_93 ?v_131) ?v_80)) (or (or ?v_16 ?v_24) ?v_157)) (or (or ?v_43 ?v_108) ?v_126)) (or (or ?v_28 P28) ?v_154)) (or (or ?v_22 ?v_112) P0)) (or (or ?v_150 ?v_90) ?v_116)) (or (or ?v_66 ?v_129) ?v_113)) (or (or ?v_20 ?v_116) ?v_127)) (or (or ?v_146 ?v_35) ?v_118)) (or (or ?v_78 ?v_125) ?v_29)) (or (or ?v_123 ?v_144) ?v_3)) (or (or ?v_110 ?v_140) ?v_126)) (or (or ?v_28 ?v_96) ?v_27)) (or (or ?v_133 ?v_76) ?v_158)) (or (or (not P15) ?v_11) P21)) (or (or ?v_23 ?v_11) ?v_48)) (or (or ?v_52 P12) ?v_91)) (or (or P5 ?v_77) ?v_52)) (or (or ?v_19 ?v_154) ?v_48)) (or (or ?v_139 ?v_44) ?v_72)) (or (or P22 ?v_107) ?v_119)) (or (or ?v_0 ?v_136) ?v_144)) (or (or ?v_74 ?v_73) ?v_77)) (or (or ?v_33 ?v_50) P25)) (or (or ?v_23 ?v_49) ?v_11)) (or (or ?v_132 ?v_84) ?v_35)) (or (or ?v_19 ?v_94) ?v_117)) (or (or ?v_107 P17) ?v_158)) (or (or ?v_84 ?v_137) ?v_66)) (or (or ?v_140 ?v_74) ?v_48)) (or (or ?v_33 ?v_35) ?v_74)) (or (or ?v_45 ?v_30) ?v_81)) (or (or ?v_87 ?v_35) ?v_55)) (or (or ?v_16 ?v_5) ?v_124)) (or (or ?v_124 P2) ?v_51)) (or (or ?v_84 ?v_155) ?v_112)) (or (or ?v_135 ?v_150) ?v_103)) (or (or P12 ?v_80) ?v_24)) (or (or P6 ?v_139) ?v_150)) (or (or ?v_57 ?v_142) ?v_136)) (or (or ?v_27 ?v_99) ?v_31)) (or (or ?v_76 P13) ?v_115)) (or (or ?v_49 ?v_158) ?v_139)) (or (or ?v_37 ?v_60) P26)) (or (or ?v_72 ?v_44) ?v_6)) (or (or ?v_121 ?v_88) ?v_23)) (or (or ?v_47 P11) ?v_159)) (or (or ?v_51 ?v_92) ?v_145)) (or (or ?v_41 ?v_119) ?v_28)) (or (or ?v_72 ?v_109) ?v_98)) (or (or ?v_86 ?v_132) ?v_150)) (or (or ?v_14 ?v_81) ?v_66)) (or (or P26 ?v_79) ?v_65)) (or (or ?v_85 ?v_74) ?v_86)) (or (or ?v_136 ?v_78) ?v_115)) (or (or P17 ?v_112) P5)) (or (or ?v_141 ?v_57) ?v_108)) (or (or P4 ?v_151) ?v_17)) (or (or ?v_6 ?v_108) ?v_74)) (or (or ?v_98 P8) P22)) (or (or ?v_126 ?v_120) ?v_145)) (or (or ?v_129 ?v_37) ?v_117)) (or (or ?v_145 ?v_38) ?v_136)) (or (or P29 ?v_35) ?v_12)) (or (or P5 ?v_17) ?v_66)) (or (or ?v_123 P27) P3)) (or (or P9 ?v_22) ?v_26)) (or (or ?v_22 P15) ?v_93)) (or (or ?v_84 P11) ?v_73)) (or (or ?v_12 ?v_122) ?v_85)) (or (or ?v_159 ?v_51) ?v_95)) (or (or ?v_158 ?v_87) P3)))))))))))))))))))))))))
(check-sat)
(exit)
